WARNING: for repeatability, setting FPU to use double precision
============================[ Problem Statistics ]=============================
|                                                                             |
|  Number of symmetries:           5                                          |
|  Number of invertingSyms:        0                                          |
|  Number of variables:            12                                         |
|  Number of clauses:              22                                         |
|  Parse time:                   0.00 s                                       |
|                                                                             |
============================[ Search Statistics ]==============================
| Conflicts |          ORIGINAL         |          LEARNT          | Progress |
|           |    Vars  Clauses Literals |    Limit  Clauses Lit/Cl |          |
===============================================================================
===============================================================================
restarts              : 1
conflicts             : 5              (inf /sec)
symconflicts          : 0              (-nan /sec)
decisions             : 4              (0.00 % random) (inf /sec)
propagations          : 45             (inf /sec)
sympropagations       : 1              (inf /sec)
conflict literals     : 9              (0.00 % deleted)
Memory used           : 5.00 MB
CPU time              : 0 s

UNSATISFIABLE
